n_res = 3;
rcap = [12, 94, 106];
rtype = [1, 2, 2];
n_tasks = 16;
modes = [ {1, 2, 3}, {4, 5, 6}, {7, 8, 9}, {10, 11, 12}, {13, 14, 15}, {16, 17, 18}, {19, 20, 21}, {22, 23, 24}, {25, 26, 27}, {28, 29, 30}, {31, 32, 33}, {34, 35, 36}, {37, 38, 39}, {40, 41, 42}, {43, 44, 45}, {46, 47, 48} ];
succ = [ {9}, {4, 5, 12}, {4, 11, 12}, {7, 8, 14}, {6, 7, 9}, {10, 11}, {15}, {9, 10}, {13}, {13}, {14, 16}, {14, 15, 16}, {15, 16}, {}, {}, {} ];
n_opt = 48;
dur = [3, 5, 7, 3, 4, 5, 1, 5, 6, 1, 2, 8, 3, 8, 9, 7, 7, 10, 1, 2, 7, 1, 2, 5, 1, 3, 10, 3, 6, 8, 2, 10, 10, 4, 5, 6, 6, 6, 8, 1, 6, 7, 1, 6, 9, 2, 4, 5];
rreq = [|  9,  8,  0,  7,  3,  0,  8,  7,  0,  0,  8,  6,  6,  2,  0,  0,  0,  0,  0,  4,  0,  0,  0,  0,  0,  0,  6,  9,  0,  8,  0,  0,  0,  0,  3,  2,  7,  7,  0,  4,  3,  0,  6,  1,  0,  5,  0,  5
        |  3,  3,  2,  9,  9,  7,  4,  4,  3,  4,  4,  3,  2,  2,  1,  4,  5,  3, 10,  9,  8,  4,  3,  3,  5,  4,  1,  6,  4,  3,  7,  7,  4,  7,  5,  5,  6,  8,  3,  2,  1,  1,  8,  8,  7, 10,  9,  9
        | 10,  6,  3,  7,  5,  2,  7,  6,  5, 10,  8,  6,  5,  5,  5,  7,  6,  5,  6,  5,  4,  7,  6,  2,  4,  3,  3,  8,  6,  5,  4,  2,  4,  3,  3,  2,  9,  8,  6,  6,  5,  3,  6,  5,  4,  7,  6,  4 |];
